100 100 100
50
7 23 48
5 36 49
7 95 73
39 31 35
34 5 48
18 92 79
89 75 7
20 12 19
68 39 83
4 19 21
43 39 46
15 91 86
4 3 32
33 94 95
43 12 26
42 84 96
37 84 67
9 46 42
50 14 40
8 4 1
99 69 85
41 43 2
16 34 48
79 96 20
90 43 82
67 25 91
32 11 40
9 19 1
32 38 41
89 87 50
85 10 88
1 38 1
42 45 32
40 10 23
50 23 23
100 71 8
34 72 83
32 8 27
3 28 40
39 14 47
38 43 3
69 9 72
16 27 6
37 49 42
7 48 2
87 20 72
84 11 97
5 4 26
22 6 5
50 17 16
